
n_days = 42;
n_roads = 5;      
n_centers = 1;    
n_worksheets = 3; 
n_activities = 8;  
n_road_sets = 2;  
n_precede = 1;
PERTUBATION=  [|34,34,34,34,34,34,34,34,34,34,34,34,34,34,34,34,34,34,34,34,34,34,34,34,34,34,34,34,34,34,34,34,34,34,34,34,34,34,34,34,34,34|18,18,39,39,39,39,39,39,39,39,39,39,39,39,11,11,11,11,11,23,23,23,23,23,23,23,23,23,23,23,23,23,23,23,23,23,23,23,23,23,23,23|41,41,41,42,42,23,23,50,50,50,50,50,50,50,50,14,14,14,14,14,14,14,14,14,14,14,14,14,14,14,14,14,14,14,14,14,14,14,14,14,14,14|40,40,40,40,40,40,40,40,40,40,46,46,46,46,46,46,46,46,46,46,46,46,46,46,46,46,46,17,17,17,17,17,17,42,42,42,42,42,42,42,42,42|48,48,48,48,48,48,48,48,48,48,48,48,48,48,48,48,48,48,48,48,48,48,48,48,48,48,48,48,48,48,48,48,48,48,48,48,48,48,48,48,48,4|];
USED_CENTER= [1,1,1];
MANDATORY= [0,0,0];
IMPORTANCE= [61,29,65];
EST= [1,1,1];
LST= [40,39,42];
DURATION= [3,4,1];
MAX_CLOSED =[2,2];
ROAD_CLOSE =[{1,2,3,4,5}, {3,4,5}];
PRECEDE= [|3,1|];
MAX_CAPACITY = [232];
W_TO_A = [|1,2,3,0,0,0,0,0|0,0,0,1,2,3,4,0|0,0,0,0,0,0,0,1|];
WORKERS_NEEDED = [19,6,16,11,15,8,8,3];
USED_ROADS = [1,4,5,1,4,2,4,4];
ACTIVITY_CENTER = [1,1,1,1,1,1,1,1];
ROAD_ACTIVITIES = [{1,4},{6},{},{2,5,7,8},{3}];
